NAME : 30_2_01.47843.tour
COMMENT : Cost = 0_47843
COMMENT : Found by LKH [Keld Helsgaun] Thu Sep 14 11:07:26 2017
TYPE : TOUR
DIMENSION : 32
TOUR_SECTION
1
7
5
28
3
2
6
32
27
16
24
21
17
19
20
9
10
8
15
14
25
23
30
11
12
18
29
31
13
22
26
4
-1
EOF
